c turning on binary mode checking
c parsing input formula with 259840 variables and 1039924 clauses
c finished parsing, read 21599057 bytes from proof file
c detected empty clause; start verification via backward checking
c 6232 of 1039924 clauses in core                            
c 2752 of 542212 lemmas in core using 68739 resolution steps
c 0 RAT lemmas in core; 401 redundant literals in core lemmas
s VERIFIED
c verification time: 2.341 seconds
